p tw 81 16201 2 
1 3 
1 4 
1 5 
1 6 
1 7 
1 8 
1 9 
1 11 
1 13 
1 15 
1 17 
1 20 
1 22 
1 24 
1 26 
1 29 
1 31 
1 33 
1 35 
1 38 
1 40 
1 42 
1 44 
1 47 
1 49 
1 51 
1 53 
1 56 
1 58 
1 60 
1 62 
1 65 
1 67 
1 69 
1 71 
1 74 
1 76 
1 78 
1 80 
2 3 
2 4 
2 5 
2 6 
2 7 
2 8 
2 9 
2 16 
2 17 
2 22 
2 28 
2 29 
2 30 
2 31 
2 32 
2 36 
2 40 
2 41 
2 44 
2 46 
2 47 
2 48 
2 51 
2 52 
2 54 
2 57 
2 60 
2 62 
2 64 
2 66 
2 68 
2 69 
2 70 
2 72 
2 73 
2 74 
2 77 
2 79 
2 81 
3 4 
3 5 
3 6 
3 7 
3 8 
3 9 
3 10 
3 11 
3 12 
3 15 
3 16 
3 18 
3 21 
3 24 
3 26 
3 28 
3 30 
3 32 
3 33 
3 34 
3 36 
3 37 
3 38 
3 41 
3 43 
3 45 
3 52 
3 53 
3 58 
3 64 
3 65 
3 66 
3 67 
3 68 
3 72 
3 76 
3 77 
3 80 
4 5 
4 6 
4 7 
4 8 
4 9 
4 10 
4 11 
4 14 
4 16 
4 18 
4 25 
4 26 
4 31 
4 37 
4 38 
4 39 
4 40 
4 41 
4 45 
4 49 
4 50 
4 53 
4 55 
4 56 
4 57 
4 60 
4 61 
4 63 
4 66 
4 69 
4 71 
4 73 
4 75 
4 77 
4 78 
4 79 
4 81 
5 6 
5 7 
5 8 
5 9 
5 10 
5 12 
5 14 
5 15 
5 16 
5 18 
5 19 
5 20 
5 23 
5 25 
5 27 
5 34 
5 35 
5 40 
5 46 
5 47 
5 48 
5 49 
5 50 
5 54 
5 58 
5 59 
5 62 
5 64 
5 65 
5 66 
5 69 
5 70 
5 72 
5 75 
5 78 
5 80 
6 7 
6 8 
6 9 
6 12 
6 15 
6 17 
6 19 
6 21 
6 23 
6 24 
6 25 
6 27 
6 28 
6 29 
6 32 
6 34 
6 36 
6 43 
6 44 
6 49 
6 55 
6 56 
6 57 
6 58 
6 59 
6 63 
6 67 
6 68 
6 71 
6 73 
6 74 
6 75 
6 78 
6 79 
6 81 
7 8 
7 9 
7 13 
7 14 
7 17 
7 19 
7 20 
7 21 
7 24 
7 25 
7 27 
7 30 
7 33 
7 35 
7 37 
7 39 
7 41 
7 42 
7 43 
7 45 
7 46 
7 47 
7 50 
7 52 
7 54 
7 61 
7 62 
7 67 
7 73 
7 74 
7 75 
7 76 
7 77 
7 81 
8 9 
8 10 
8 11 
8 12 
8 13 
8 14 
8 18 
8 22 
8 23 
8 26 
8 28 
8 29 
8 30 
8 33 
8 34 
8 36 
8 39 
8 42 
8 44 
8 46 
8 48 
8 50 
8 51 
8 52 
8 54 
8 55 
8 56 
8 59 
8 61 
8 63 
8 70 
8 71 
8 76 
9 13 
9 19 
9 20 
9 21 
9 22 
9 23 
9 27 
9 31 
9 32 
9 35 
9 37 
9 38 
9 39 
9 42 
9 43 
9 45 
9 48 
9 51 
9 53 
9 55 
9 57 
9 59 
9 60 
9 61 
9 63 
9 64 
9 65 
9 68 
9 70 
9 72 
9 79 
9 80 
10 11 
10 12 
10 13 
10 14 
10 15 
10 16 
10 20 
10 21 
10 22 
10 24 
10 25 
10 26 
10 27 
10 34 
10 35 
10 36 
10 38 
10 39 
10 40 
10 43 
10 44 
10 50 
10 51 
10 54 
10 56 
10 57 
10 59 
10 60 
10 62 
10 66 
10 68 
10 72 
10 76 
10 77 
10 79 
10 81 
11 18 
11 20 
11 24 
11 29 
11 30 
11 31 
11 32 
11 33 
11 34 
11 37 
11 38 
11 42 
11 43 
11 47 
11 48 
11 49 
11 50 
11 53 
11 54 
11 55 
11 56 
11 59 
11 62 
11 65 
11 66 
11 68 
11 70 
11 71 
11 72 
11 73 
11 74 
11 75 
11 76 
11 79 
11 81 
12 13 
12 14 
12 15 
12 16 
12 17 
12 18 
12 20 
12 22 
12 23 
12 24 
12 26 
12 27 
12 28 
12 29 
12 36 
12 37 
12 40 
12 41 
12 42 
12 45 
12 47 
12 52 
12 53 
12 55 
12 58 
12 59 
12 61 
12 62 
12 65 
12 68 
12 70 
12 73 
12 78 
12 79 
12 81 
13 19 
13 20 
13 22 
13 26 
13 31 
13 32 
13 33 
13 34 
13 35 
13 36 
13 39 
13 40 
13 44 
13 45 
13 47 
13 49 
13 50 
13 51 
13 52 
13 55 
13 57 
13 58 
13 61 
13 65 
13 67 
13 68 
13 70 
13 72 
13 73 
13 75 
13 76 
13 77 
13 78 
13 81 
14 15 
14 16 
14 17 
14 18 
14 19 
14 22 
14 24 
14 25 
14 26 
14 28 
14 29 
14 30 
14 31 
14 37 
14 38 
14 39 
14 42 
14 43 
14 44 
14 46 
14 47 
14 49 
14 54 
14 57 
14 60 
14 61 
14 63 
14 65 
14 67 
14 70 
14 72 
14 75 
14 80 
14 81 
15 21 
15 22 
15 24 
15 33 
15 34 
15 35 
15 36 
15 37 
15 41 
15 42 
15 46 
15 49 
15 51 
15 52 
15 53 
15 54 
15 56 
15 57 
15 59 
15 60 
15 63 
15 65 
15 67 
15 69 
15 70 
15 72 
15 73 
15 74 
15 75 
15 77 
15 78 
15 79 
15 80 
16 17 
16 18 
16 19 
16 20 
16 21 
16 24 
16 26 
16 27 
16 29 
16 30 
16 31 
16 32 
16 33 
16 39 
16 40 
16 41 
16 44 
16 45 
16 48 
16 49 
16 51 
16 55 
16 56 
16 59 
16 62 
16 63 
16 64 
16 65 
16 67 
16 69 
16 72 
16 73 
16 77 
17 23 
17 24 
17 26 
17 29 
17 35 
17 36 
17 37 
17 38 
17 39 
17 43 
17 44 
17 47 
17 48 
17 51 
17 53 
17 54 
17 55 
17 58 
17 59 
17 61 
17 62 
17 64 
17 67 
17 69 
17 71 
17 72 
17 73 
17 75 
17 76 
17 77 
17 79 
17 80 
17 81 
18 19 
18 20 
18 21 
18 22 
18 23 
18 26 
18 28 
18 29 
18 31 
18 32 
18 33 
18 34 
18 35 
18 41 
18 42 
18 43 
18 46 
18 47 
18 50 
18 51 
18 53 
18 57 
18 58 
18 61 
18 64 
18 66 
18 67 
18 69 
18 71 
18 73 
18 75 
18 79 
19 20 
19 21 
19 22 
19 23 
19 24 
19 25 
19 29 
19 30 
19 31 
19 33 
19 34 
19 35 
19 36 
19 43 
19 44 
19 45 
19 47 
19 48 
19 49 
19 52 
19 53 
19 59 
19 60 
19 63 
19 65 
19 66 
19 68 
19 69 
19 71 
19 75 
19 77 
19 81 
20 27 
20 29 
20 33 
20 38 
20 39 
20 40 
20 41 
20 42 
20 43 
20 46 
20 47 
20 51 
20 52 
20 56 
20 57 
20 58 
20 59 
20 62 
20 63 
20 64 
20 65 
20 68 
20 71 
20 74 
20 75 
20 77 
20 79 
20 80 
20 81 
21 22 
21 23 
21 24 
21 25 
21 26 
21 27 
21 29 
21 31 
21 32 
21 33 
21 35 
21 36 
21 37 
21 38 
21 45 
21 46 
21 49 
21 50 
21 51 
21 54 
21 56 
21 61 
21 62 
21 64 
21 67 
21 68 
21 70 
21 71 
21 74 
21 77 
21 79 
22 28 
22 29 
22 31 
22 35 
22 40 
22 41 
22 42 
22 43 
22 44 
22 45 
22 48 
22 49 
22 53 
22 54 
22 56 
22 58 
22 59 
22 60 
22 61 
22 64 
22 66 
22 67 
22 70 
22 74 
22 76 
22 77 
22 79 
22 81 
23 24 
23 25 
23 26 
23 27 
23 28 
23 31 
23 33 
23 34 
23 35 
23 37 
23 38 
23 39 
23 40 
23 46 
23 47 
23 48 
23 51 
23 52 
23 53 
23 55 
23 56 
23 58 
23 63 
23 66 
23 69 
23 70 
23 72 
23 74 
23 76 
23 79 
23 81 
24 30 
24 31 
24 33 
24 42 
24 43 
24 44 
24 45 
24 46 
24 50 
24 51 
24 55 
24 58 
24 60 
24 61 
24 62 
24 63 
24 65 
24 66 
24 68 
24 69 
24 72 
24 74 
24 76 
24 78 
24 79 
24 81 
25 26 
25 27 
25 28 
25 29 
25 30 
25 33 
25 35 
25 36 
25 38 
25 39 
25 40 
25 41 
25 42 
25 48 
25 49 
25 50 
25 53 
25 54 
25 57 
25 58 
25 60 
25 64 
25 65 
25 68 
25 71 
25 72 
25 73 
25 74 
25 76 
25 78 
25 81 
26 32 
26 33 
26 35 
26 38 
26 44 
26 45 
26 46 
26 47 
26 48 
26 52 
26 53 
26 56 
26 57 
26 60 
26 62 
26 63 
26 64 
26 67 
26 68 
26 70 
26 71 
26 73 
26 76 
26 78 
26 80 
26 81 
27 28 
27 29 
27 30 
27 31 
27 32 
27 35 
27 37 
27 38 
27 40 
27 41 
27 42 
27 43 
27 44 
27 50 
27 51 
27 52 
27 55 
27 56 
27 59 
27 60 
27 62 
27 66 
27 67 
27 70 
27 73 
27 75 
27 76 
27 78 
27 80 
28 29 
28 30 
28 31 
28 32 
28 33 
28 34 
28 38 
28 39 
28 40 
28 42 
28 43 
28 44 
28 45 
28 52 
28 53 
28 54 
28 56 
28 57 
28 58 
28 61 
28 62 
28 68 
28 69 
28 72 
28 74 
28 75 
28 77 
28 78 
28 80 
29 36 
29 38 
29 42 
29 47 
29 48 
29 49 
29 50 
29 51 
29 52 
29 55 
29 56 
29 60 
29 61 
29 65 
29 66 
29 67 
29 68 
29 71 
29 72 
29 73 
29 74 
29 77 
29 80 
30 31 
30 32 
30 33 
30 34 
30 35 
30 36 
30 38 
30 40 
30 41 
30 42 
30 44 
30 45 
30 46 
30 47 
30 54 
30 55 
30 58 
30 59 
30 60 
30 63 
30 65 
30 70 
30 71 
30 73 
30 76 
30 77 
30 79 
30 80 
31 37 
31 38 
31 40 
31 44 
31 49 
31 50 
31 51 
31 52 
31 53 
31 54 
31 57 
31 58 
31 62 
31 63 
31 65 
31 67 
31 68 
31 69 
31 70 
31 73 
31 75 
31 76 
31 79 
32 33 
32 34 
32 35 
32 36 
32 37 
32 40 
32 42 
32 43 
32 44 
32 46 
32 47 
32 48 
32 49 
32 55 
32 56 
32 57 
32 60 
32 61 
32 62 
32 64 
32 65 
32 67 
32 72 
32 75 
32 78 
32 79 
32 81 
33 39 
33 40 
33 42 
33 51 
33 52 
33 53 
33 54 
33 55 
33 59 
33 60 
33 64 
33 67 
33 69 
33 70 
33 71 
33 72 
33 74 
33 75 
33 77 
33 78 
33 81 
34 35 
34 36 
34 37 
34 38 
34 39 
34 42 
34 44 
34 45 
34 47 
34 48 
34 49 
34 50 
34 51 
34 57 
34 58 
34 59 
34 62 
34 63 
34 66 
34 67 
34 69 
34 73 
34 74 
34 77 
34 80 
34 81 
35 41 
35 42 
35 44 
35 47 
35 53 
35 54 
35 55 
35 56 
35 57 
35 61 
35 62 
35 65 
35 66 
35 69 
35 71 
35 72 
35 73 
35 76 
35 77 
35 79 
35 80 
36 37 
36 38 
36 39 
36 40 
36 41 
36 44 
36 46 
36 47 
36 49 
36 50 
36 51 
36 52 
36 53 
36 59 
36 60 
36 61 
36 64 
36 65 
36 68 
36 69 
36 71 
36 75 
36 76 
36 79 
37 38 
37 39 
37 40 
37 41 
37 42 
37 43 
37 47 
37 48 
37 49 
37 51 
37 52 
37 53 
37 54 
37 61 
37 62 
37 63 
37 65 
37 66 
37 67 
37 70 
37 71 
37 77 
37 78 
37 81 
38 45 
38 47 
38 51 
38 56 
38 57 
38 58 
38 59 
38 60 
38 61 
38 64 
38 65 
38 69 
38 70 
38 74 
38 75 
38 76 
38 77 
38 80 
38 81 
39 40 
39 41 
39 42 
39 43 
39 44 
39 45 
39 47 
39 49 
39 50 
39 51 
39 53 
39 54 
39 55 
39 56 
39 63 
39 64 
39 67 
39 68 
39 69 
39 72 
39 74 
39 79 
39 80 
40 46 
40 47 
40 49 
40 53 
40 58 
40 59 
40 60 
40 61 
40 62 
40 63 
40 66 
40 67 
40 71 
40 72 
40 74 
40 76 
40 77 
40 78 
40 79 
41 42 
41 43 
41 44 
41 45 
41 46 
41 49 
41 51 
41 52 
41 53 
41 55 
41 56 
41 57 
41 58 
41 64 
41 65 
41 66 
41 69 
41 70 
41 71 
41 73 
41 74 
41 76 
41 81 
42 48 
42 49 
42 51 
42 60 
42 61 
42 62 
42 63 
42 64 
42 68 
42 69 
42 73 
42 76 
42 78 
42 79 
42 80 
42 81 
43 44 
43 45 
43 46 
43 47 
43 48 
43 51 
43 53 
43 54 
43 56 
43 57 
43 58 
43 59 
43 60 
43 66 
43 67 
43 68 
43 71 
43 72 
43 75 
43 76 
43 78 
44 50 
44 51 
44 53 
44 56 
44 62 
44 63 
44 64 
44 65 
44 66 
44 70 
44 71 
44 74 
44 75 
44 78 
44 80 
44 81 
45 46 
45 47 
45 48 
45 49 
45 50 
45 53 
45 55 
45 56 
45 58 
45 59 
45 60 
45 61 
45 62 
45 68 
45 69 
45 70 
45 73 
45 74 
45 77 
45 78 
45 80 
46 47 
46 48 
46 49 
46 50 
46 51 
46 52 
46 56 
46 57 
46 58 
46 60 
46 61 
46 62 
46 63 
46 70 
46 71 
46 72 
46 74 
46 75 
46 76 
46 79 
46 80 
47 54 
47 56 
47 60 
47 65 
47 66 
47 67 
47 68 
47 69 
47 70 
47 73 
47 74 
47 78 
47 79 
48 49 
48 50 
48 51 
48 52 
48 53 
48 54 
48 56 
48 58 
48 59 
48 60 
48 62 
48 63 
48 64 
48 65 
48 72 
48 73 
48 76 
48 77 
48 78 
48 81 
49 55 
49 56 
49 58 
49 62 
49 67 
49 68 
49 69 
49 70 
49 71 
49 72 
49 75 
49 76 
49 80 
49 81 
50 51 
50 52 
50 53 
50 54 
50 55 
50 58 
50 60 
50 61 
50 62 
50 64 
50 65 
50 66 
50 67 
50 73 
50 74 
50 75 
50 78 
50 79 
50 80 
51 57 
51 58 
51 60 
51 69 
51 70 
51 71 
51 72 
51 73 
51 77 
51 78 
52 53 
52 54 
52 55 
52 56 
52 57 
52 60 
52 62 
52 63 
52 65 
52 66 
52 67 
52 68 
52 69 
52 75 
52 76 
52 77 
52 80 
52 81 
53 59 
53 60 
53 62 
53 65 
53 71 
53 72 
53 73 
53 74 
53 75 
53 79 
53 80 
54 55 
54 56 
54 57 
54 58 
54 59 
54 62 
54 64 
54 65 
54 67 
54 68 
54 69 
54 70 
54 71 
54 77 
54 78 
54 79 
55 56 
55 57 
55 58 
55 59 
55 60 
55 61 
55 65 
55 66 
55 67 
55 69 
55 70 
55 71 
55 72 
55 79 
55 80 
55 81 
56 63 
56 65 
56 69 
56 74 
56 75 
56 76 
56 77 
56 78 
56 79 
57 58 
57 59 
57 60 
57 61 
57 62 
57 63 
57 65 
57 67 
57 68 
57 69 
57 71 
57 72 
57 73 
57 74 
57 81 
58 64 
58 65 
58 67 
58 71 
58 76 
58 77 
58 78 
58 79 
58 80 
58 81 
59 60 
59 61 
59 62 
59 63 
59 64 
59 67 
59 69 
59 70 
59 71 
59 73 
59 74 
59 75 
59 76 
60 66 
60 67 
60 69 
60 78 
60 79 
60 80 
60 81 
61 62 
61 63 
61 64 
61 65 
61 66 
61 69 
61 71 
61 72 
61 74 
61 75 
61 76 
61 77 
61 78 
62 68 
62 69 
62 71 
62 74 
62 80 
62 81 
63 64 
63 65 
63 66 
63 67 
63 68 
63 71 
63 73 
63 74 
63 76 
63 77 
63 78 
63 79 
63 80 
64 65 
64 66 
64 67 
64 68 
64 69 
64 70 
64 74 
64 75 
64 76 
64 78 
64 79 
64 80 
64 81 
65 72 
65 74 
65 78 
66 67 
66 68 
66 69 
66 70 
66 71 
66 72 
66 74 
66 76 
66 77 
66 78 
66 80 
66 81 
67 73 
67 74 
67 76 
67 80 
68 69 
68 70 
68 71 
68 72 
68 73 
68 76 
68 78 
68 79 
68 80 
69 75 
69 76 
69 78 
70 71 
70 72 
70 73 
70 74 
70 75 
70 78 
70 80 
70 81 
71 77 
71 78 
71 80 
72 73 
72 74 
72 75 
72 76 
72 77 
72 80 
73 74 
73 75 
73 76 
73 77 
73 78 
73 79 
74 81 
75 76 
75 77 
75 78 
75 79 
75 80 
75 81 
77 78 
77 79 
77 80 
77 81 
79 80 
79 81 
